4 10
99 73 83 119 
0 1 6 19 24 51 43 62 61 39 7 53 75 83 93 23 12 96 4 64 25 3
1 71 66 1 1 44 43 70 78 19 43 95 79 54 35 15 90 49 51 30 14 2
2 58 60 43 39 5 9 82 80 59 35 17 73 12 22 50 63 13 52 79 76 1
3 13 17 72 64 1 10 59 65 38 45 99 90 49 66 71 52 13 64 1 79 3
4 78 82 24 33 78 83 24 34 61 50 15 88 62 15 88 91 74 76 41 21 4
5 2 8 57 62 17 9 72 63 76 2 91 54 37 69 55 44 11 2 95 17 3
6 92 83 1 10 42 36 63 63 74 70 9 45 11 38 23 40 73 64 17 56 1
7 1 6 47 44 87 83 17 21 77 70 1 5 39 7 60 97 11 36 28 4 3
8 74 71 30 38 1 4 79 79 29 64 80 58 67 70 18 54 29 98 97 9 1
9 90 96 41 51 13 5 48 52 67 93 35 37 85 14 39 42 14 26 35 50 4
